n = 10; 

m=8; 


											
67	33	20	67	27	14	75	75	67	20
28	53	51	37	66	33	57	46	33	67
22	70	23	47	70	30	23	22	27	75
20	51	41	17	25	46	34	42	14	77
23	54	28	32	53	42	24	52	67	20
33	70	16	16	42	69	32	32	28	43
51	14	10	36	67	29	40	56	44	39
22	70	23	47	70	30	23	22	27	75











 
 


 

 
